NAME : random_13
COMMENT : 50 random nodes
TYPE : TSP
DIMENSION : 50
EDGE_WEIGHT_TYPE : EUC_2D
NODE_COORD_SECTION
1 493 280
2 540 529
3 760 41
4 403 740
5 954 391
6 521 375
7 455 448
8 169 801
9 662 356
10 700 550
11 516 61
12 406 912
13 764 826
14 685 960
15 982 240
16 333 889
17 390 57
18 800 464
19 955 710
20 655 833
21 982 445
22 192 16
23 349 960
24 997 643
25 75 49
26 335 198
27 757 199
28 494 219
29 648 715
30 165 831
31 89 801
32 57 549
33 4 799
34 734 876
35 107 547
36 270 943
37 660 618
38 57 138
39 364 431
40 440 954
41 859 401
42 689 264
43 106 945
44 158 193
45 593 559
46 173 337
47 227 433
48 412 244
49 980 719
50 912 906
EOF